75
1 0 1
2 0 21
2 1 34
3 0 42
3 1 2
3 2 43
4 0 49
4 1 20
4 2 18
4 3 26
5 0 1
5 1 33
5 2 32
5 3 41
5 4 33
6 0 21
6 1 13
6 2 44
6 3 22
6 4 40
6 5 28
7 0 50
7 1 26
7 2 21
7 3 39
7 4 33
7 5 35
7 6 27
8 0 24
8 1 30
8 2 46
8 3 45
8 4 27
8 5 14
8 6 13
8 7 17
9 0 47
9 1 14
9 2 8
9 3 21
9 4 13
9 5 25
9 6 3
9 7 34
9 8 8
10 0 26
10 1 3
10 2 3
10 3 29
10 4 13
10 5 11
10 6 40
10 7 18
10 8 43
10 9 22
11 0 41
11 1 23
11 2 12
11 3 7
11 4 17
11 5 49
11 6 5
11 7 13
11 8 13
11 9 40
11 10 9
12 0 11
12 1 33
12 2 16
12 3 34
12 4 36
12 5 7
12 6 38
12 7 45
12 8 47
12 9 16
12 10 5
12 11 38
13 0 48
13 1 16
13 2 11
13 3 10
13 4 43
13 5 7
13 6 21
13 7 28
13 8 39
13 9 26
13 10 44
13 11 11
13 12 36
14 0 15
14 1 40
14 2 23
14 3 49
14 4 29
14 5 32
14 6 45
14 7 26
14 8 10
14 9 18
14 10 17
14 11 34
14 12 18
14 13 28
15 0 39
15 1 40
15 2 14
15 3 10
15 4 32
15 5 8
15 6 13
15 7 1
15 8 47
15 9 35
15 10 30
15 11 3
15 12 32
15 13 44
15 14 17
16 0 33
16 1 17
16 2 23
16 3 20
16 4 50
16 5 23
16 6 48
16 7 1
16 8 11
16 9 5
16 10 26
16 11 18
16 12 16
16 13 22
16 14 35
16 15 28
17 0 23
17 1 23
17 2 6
17 3 47
17 4 33
17 5 5
17 6 33
17 7 41
17 8 40
17 9 23
17 10 28
17 11 17
17 12 16
17 13 18
17 14 43
17 15 4
17 16 6
18 0 20
18 1 41
18 2 29
18 3 33
18 4 29
18 5 22
18 6 49
18 7 13
18 8 48
18 9 49
18 10 9
18 11 39
18 12 39
18 13 20
18 14 28
18 15 28
18 16 9
18 17 45
19 0 48
19 1 11
19 2 29
19 3 48
19 4 25
19 5 21
19 6 3
19 7 39
19 8 22
19 9 3
19 10 23
19 11 41
19 12 13
19 13 23
19 14 49
19 15 45
19 16 21
19 17 50
19 18 33
20 0 6
20 1 33
20 2 3
20 3 41
20 4 17
20 5 50
20 6 36
20 7 18
20 8 20
20 9 11
20 10 23
20 11 38
20 12 41
20 13 50
20 14 17
20 15 34
20 16 2
20 17 45
20 18 47
20 19 1
21 0 19
21 1 34
21 2 9
21 3 35
21 4 45
21 5 37
21 6 43
21 7 4
21 8 25
21 9 39
21 10 25
21 11 24
21 12 18
21 13 41
21 14 39
21 15 40
21 16 41
21 17 6
21 18 35
21 19 8
21 20 22
22 0 3
22 1 13
22 2 13
22 3 18
22 4 16
22 5 17
22 6 41
22 7 33
22 8 26
22 9 43
22 10 14
22 11 15
22 12 2
22 13 34
22 14 29
22 15 29
22 16 17
22 17 36
22 18 37
22 19 16
22 20 24
22 21 5
23 0 26
23 1 15
23 2 14
23 3 26
23 4 30
23 5 29
23 6 23
23 7 1
23 8 33
23 9 36
23 10 45
23 11 45
23 12 32
23 13 1
23 14 23
23 15 28
23 16 46
23 17 21
23 18 14
23 19 10
23 20 5
23 21 24
23 22 25
24 0 46
24 1 2
24 2 35
24 3 29
24 4 38
24 5 36
24 6 9
24 7 49
24 8 18
24 9 26
24 10 5
24 11 38
24 12 26
24 13 47
24 14 44
24 15 9
24 16 42
24 17 29
24 18 40
24 19 27
24 20 10
24 21 20
24 22 20
24 23 45
25 0 28
25 1 49
25 2 48
25 3 15
25 4 35
25 5 34
25 6 2
25 7 31
25 8 36
25 9 50
25 10 36
25 11 10
25 12 9
25 13 10
25 14 3
25 15 47
25 16 28
25 17 11
25 18 47
25 19 22
25 20 14
25 21 20
25 22 11
25 23 21
25 24 22
26 0 27
26 1 1
26 2 22
26 3 1
26 4 13
26 5 23
26 6 35
26 7 8
26 8 43
26 9 8
26 10 24
26 11 47
26 12 43
26 13 21
26 14 12
26 15 27
26 16 6
26 17 39
26 18 1
26 19 42
26 20 17
26 21 17
26 22 49
26 23 47
26 24 47
26 25 17
27 0 29
27 1 38
27 2 50
27 3 27
27 4 42
27 5 12
27 6 31
27 7 21
27 8 16
27 9 24
27 10 39
27 11 26
27 12 10
27 13 38
27 14 40
27 15 10
27 16 6
27 17 26
27 18 36
27 19 30
27 20 4
27 21 30
27 22 20
27 23 46
27 24 18
27 25 21
27 26 50
28 0 46
28 1 14
28 2 39
28 3 14
28 4 11
28 5 12
28 6 24
28 7 43
28 8 18
28 9 19
28 10 2
28 11 7
28 12 5
28 13 44
28 14 4
28 15 2
28 16 31
28 17 30
28 18 18
28 19 8
28 20 37
28 21 36
28 22 10
28 23 17
28 24 7
28 25 20
28 26 2
28 27 44
29 0 14
29 1 45
29 2 24
29 3 22
29 4 20
29 5 13
29 6 30
29 7 40
29 8 5
29 9 48
29 10 37
29 11 42
29 12 45
29 13 44
29 14 8
29 15 14
29 16 10
29 17 19
29 18 43
29 19 17
29 20 23
29 21 34
29 22 39
29 23 5
29 24 9
29 25 23
29 26 4
29 27 17
29 28 24
30 0 39
30 1 8
30 2 12
30 3 6
30 4 10
30 5 40
30 6 43
30 7 12
30 8 12
30 9 15
30 10 31
30 11 10
30 12 16
30 13 37
30 14 13
30 15 13
30 16 35
30 17 30
30 18 34
30 19 9
30 20 18
30 21 26
30 22 36
30 23 37
30 24 21
30 25 39
30 26 5
30 27 33
30 28 2
30 29 37
31 0 29
31 1 47
31 2 29
31 3 23
31 4 26
31 5 5
31 6 22
31 7 19
31 8 7
31 9 43
31 10 1
31 11 18
31 12 4
31 13 33
31 14 33
31 15 36
31 16 23
31 17 30
31 18 23
31 19 9
31 20 6
31 21 47
31 22 14
31 23 32
31 24 41
31 25 9
31 26 35
31 27 15
31 28 40
31 29 17
31 30 7
32 0 19
32 1 43
32 2 1
32 3 37
32 4 43
32 5 36
32 6 18
32 7 1
32 8 31
32 9 24
32 10 42
32 11 35
32 12 44
32 13 22
32 14 34
32 15 39
32 16 7
32 17 28
32 18 14
32 19 28
32 20 36
32 21 12
32 22 47
32 23 9
32 24 41
32 25 17
32 26 39
32 27 46
32 28 24
32 29 26
32 30 24
32 31 11
33 0 1
33 1 24
33 2 24
33 3 20
33 4 42
33 5 23
33 6 38
33 7 12
33 8 28
33 9 2
33 10 6
33 11 8
33 12 44
33 13 27
33 14 32
33 15 23
33 16 42
33 17 2
33 18 48
33 19 50
33 20 8
33 21 7
33 22 20
33 23 15
33 24 38
33 25 39
33 26 46
33 27 32
33 28 47
33 29 48
33 30 32
33 31 7
33 32 31
34 0 1
34 1 24
34 2 26
34 3 32
34 4 35
34 5 47
34 6 49
34 7 47
34 8 32
34 9 3
34 10 40
34 11 18
34 12 19
34 13 15
34 14 13
34 15 11
34 16 21
34 17 44
34 18 46
34 19 38
34 20 49
34 21 22
34 22 38
34 23 26
34 24 8
34 25 25
34 26 15
34 27 43
34 28 44
34 29 41
34 30 41
34 31 12
34 32 43
34 33 41
35 0 30
35 1 15
35 2 16
35 3 27
35 4 15
35 5 20
35 6 17
35 7 32
35 8 12
35 9 25
35 10 42
35 11 48
35 12 4
35 13 15
35 14 46
35 15 45
35 16 15
35 17 12
35 18 40
35 19 13
35 20 13
35 21 34
35 22 29
35 23 7
35 24 39
35 25 11
35 26 37
35 27 30
35 28 41
35 29 12
35 30 49
35 31 48
35 32 14
35 33 49
35 34 42
36 0 15
36 1 8
36 2 34
36 3 8
36 4 34
36 5 43
36 6 39
36 7 18
36 8 27
36 9 45
36 10 49
36 11 6
36 12 35
36 13 31
36 14 44
36 15 50
36 16 12
36 17 33
36 18 17
36 19 43
36 20 16
36 21 9
36 22 40
36 23 14
36 24 18
36 25 7
36 26 17
36 27 24
36 28 18
36 29 50
36 30 47
36 31 1
36 32 15
36 33 1
36 34 33
36 35 37
37 0 44
37 1 28
37 2 8
37 3 25
37 4 42
37 5 17
37 6 9
37 7 30
37 8 47
37 9 24
37 10 40
37 11 5
37 12 8
37 13 35
37 14 25
37 15 16
37 16 28
37 17 19
37 18 27
37 19 18
37 20 17
37 21 36
37 22 43
37 23 16
37 24 22
37 25 35
37 26 44
37 27 26
37 28 3
37 29 25
37 30 31
37 31 46
37 32 2
37 33 19
37 34 14
37 35 36
37 36 32
38 0 20
38 1 46
38 2 32
38 3 22
38 4 14
38 5 49
38 6 19
38 7 14
38 8 30
38 9 1
38 10 15
38 11 26
38 12 35
38 13 27
38 14 20
38 15 44
38 16 12
38 17 45
38 18 49
38 19 45
38 20 23
38 21 46
38 22 32
38 23 35
38 24 6
38 25 19
38 26 25
38 27 12
38 28 6
38 29 26
38 30 45
38 31 42
38 32 1
38 33 29
38 34 39
38 35 13
38 36 46
38 37 27
39 0 24
39 1 31
39 2 39
39 3 46
39 4 46
39 5 9
39 6 31
39 7 12
39 8 11
39 9 25
39 10 34
39 11 18
39 12 4
39 13 38
39 14 5
39 15 44
39 16 42
39 17 3
39 18 42
39 19 19
39 20 40
39 21 47
39 22 4
39 23 12
39 24 6
39 25 34
39 26 45
39 27 48
39 28 30
39 29 48
39 30 20
39 31 38
39 32 8
39 33 49
39 34 21
39 35 21
39 36 35
39 37 1
39 38 19
40 0 35
40 1 27
40 2 7
40 3 49
40 4 14
40 5 50
40 6 30
40 7 47
40 8 20
40 9 26
40 10 49
40 11 40
40 12 48
40 13 21
40 14 9
40 15 31
40 16 43
40 17 12
40 18 40
40 19 47
40 20 27
40 21 14
40 22 33
40 23 22
40 24 20
40 25 44
40 26 9
40 27 12
40 28 9
40 29 7
40 30 9
40 31 33
40 32 28
40 33 38
40 34 13
40 35 39
40 36 41
40 37 32
40 38 33
40 39 17
41 0 3
41 1 31
41 2 15
41 3 46
41 4 21
41 5 39
41 6 35
41 7 44
41 8 5
41 9 29
41 10 26
41 11 5
41 12 27
41 13 16
41 14 12
41 15 12
41 16 36
41 17 21
41 18 8
41 19 4
41 20 23
41 21 27
41 22 28
41 23 11
41 24 17
41 25 28
41 26 1
41 27 47
41 28 26
41 29 50
41 30 50
41 31 23
41 32 29
41 33 13
41 34 7
41 35 30
41 36 8
41 37 43
41 38 6
41 39 21
41 40 4
42 0 30
42 1 44
42 2 45
42 3 5
42 4 7
42 5 26
42 6 3
42 7 34
42 8 34
42 9 11
42 10 28
42 11 9
42 12 24
42 13 1
42 14 29
42 15 29
42 16 28
42 17 21
42 18 18
42 19 24
42 20 43
42 21 35
42 22 43
42 23 50
42 24 22
42 25 49
42 26 17
42 27 49
42 28 42
42 29 5
42 30 45
42 31 25
42 32 25
42 33 44
42 34 9
42 35 25
42 36 39
42 37 18
42 38 46
42 39 5
42 40 9
42 41 4
43 0 36
43 1 10
43 2 31
43 3 29
43 4 34
43 5 47
43 6 50
43 7 23
43 8 25
43 9 21
43 10 21
43 11 49
43 12 8
43 13 36
43 14 32
43 15 42
43 16 21
43 17 4
43 18 35
43 19 24
43 20 32
43 21 40
43 22 46
43 23 28
43 24 37
43 25 11
43 26 27
43 27 44
43 28 11
43 29 42
43 30 41
43 31 6
43 32 38
43 33 18
43 34 12
43 35 22
43 36 23
43 37 19
43 38 16
43 39 15
43 40 3
43 41 45
43 42 50
44 0 19
44 1 35
44 2 41
44 3 29
44 4 23
44 5 29
44 6 12
44 7 50
44 8 23
44 9 22
44 10 13
44 11 30
44 12 12
44 13 45
44 14 9
44 15 32
44 16 27
44 17 21
44 18 46
44 19 23
44 20 23
44 21 29
44 22 37
44 23 50
44 24 14
44 25 32
44 26 17
44 27 47
44 28 21
44 29 37
44 30 22
44 31 31
44 32 43
44 33 9
44 34 3
44 35 36
44 36 20
44 37 31
44 38 5
44 39 20
44 40 36
44 41 3
44 42 12
44 43 50
45 0 30
45 1 15
45 2 42
45 3 42
45 4 19
45 5 32
45 6 35
45 7 32
45 8 8
45 9 27
45 10 38
45 11 27
45 12 18
45 13 13
45 14 44
45 15 41
45 16 39
45 17 38
45 18 38
45 19 36
45 20 1
45 21 20
45 22 8
45 23 3
45 24 15
45 25 3
45 26 9
45 27 19
45 28 29
45 29 1
45 30 15
45 31 49
45 32 46
45 33 23
45 34 20
45 35 9
45 36 6
45 37 23
45 38 1
45 39 11
45 40 21
45 41 2
45 42 16
45 43 5
45 44 33
46 0 22
46 1 40
46 2 6
46 3 48
46 4 30
46 5 40
46 6 42
46 7 13
46 8 40
46 9 44
46 10 37
46 11 44
46 12 44
46 13 2
46 14 46
46 15 12
46 16 9
46 17 15
46 18 24
46 19 5
46 20 22
46 21 45
46 22 28
46 23 16
46 24 19
46 25 17
46 26 1
46 27 30
46 28 12
46 29 50
46 30 13
46 31 1
46 32 48
46 33 45
46 34 47
46 35 16
46 36 30
46 37 50
46 38 8
46 39 42
46 40 9
46 41 11
46 42 34
46 43 12
46 44 3
46 45 29
47 0 4
47 1 38
47 2 19
47 3 35
47 4 6
47 5 1
47 6 29
47 7 22
47 8 21
47 9 28
47 10 33
47 11 49
47 12 23
47 13 27
47 14 33
47 15 11
47 16 27
47 17 19
47 18 46
47 19 50
47 20 43
47 21 8
47 22 34
47 23 20
47 24 14
47 25 10
47 26 18
47 27 26
47 28 11
47 29 48
47 30 15
47 31 50
47 32 38
47 33 22
47 34 9
47 35 27
47 36 44
47 37 23
47 38 2
47 39 13
47 40 19
47 41 29
47 42 41
47 43 7
47 44 14
47 45 29
47 46 43
48 0 17
48 1 4
48 2 42
48 3 22
48 4 10
48 5 34
48 6 45
48 7 49
48 8 40
48 9 40
48 10 46
48 11 39
48 12 34
48 13 44
48 14 11
48 15 36
48 16 5
48 17 14
48 18 39
48 19 21
48 20 37
48 21 39
48 22 24
48 23 27
48 24 50
48 25 49
48 26 22
48 27 22
48 28 8
48 29 6
48 30 41
48 31 4
48 32 43
48 33 15
48 34 45
48 35 14
48 36 49
48 37 3
48 38 10
48 39 22
48 40 45
48 41 1
48 42 4
48 43 12
48 44 15
48 45 45
48 46 2
48 47 19
49 0 20
49 1 2
49 2 38
49 3 47
49 4 7
49 5 27
49 6 19
49 7 49
49 8 39
49 9 9
49 10 34
49 11 33
49 12 34
49 13 13
49 14 10
49 15 48
49 16 28
49 17 26
49 18 27
49 19 27
49 20 21
49 21 8
49 22 6
49 23 28
49 24 25
49 25 29
49 26 11
49 27 24
49 28 41
49 29 46
49 30 17
49 31 5
49 32 13
49 33 10
49 34 47
49 35 12
49 36 40
49 37 8
49 38 2
49 39 5
49 40 16
49 41 10
49 42 23
49 43 1
49 44 36
49 45 8
49 46 35
49 47 6
49 48 35
50 0 32
50 1 21
50 2 13
50 3 12
50 4 15
50 5 15
50 6 50
50 7 32
50 8 6
50 9 33
50 10 46
50 11 31
50 12 36
50 13 10
50 14 49
50 15 3
50 16 17
50 17 31
50 18 4
50 19 49
50 20 34
50 21 44
50 22 8
50 23 12
50 24 50
50 25 37
50 26 47
50 27 45
50 28 12
50 29 24
50 30 42
50 31 5
50 32 42
50 33 3
50 34 4
50 35 5
50 36 30
50 37 4
50 38 14
50 39 35
50 40 44
50 41 28
50 42 10
50 43 17
50 44 37
50 45 46
50 46 7
50 47 18
50 48 5
50 49 1
51 0 9
51 1 22
51 2 38
51 3 11
51 4 27
51 5 3
51 6 3
51 7 22
51 8 25
51 9 29
51 10 23
51 11 3
51 12 36
51 13 18
51 14 6
51 15 44
51 16 48
51 17 32
51 18 34
51 19 36
51 20 17
51 21 34
51 22 23
51 23 5
51 24 49
51 25 43
51 26 44
51 27 11
51 28 17
51 29 5
51 30 41
51 31 21
51 32 44
51 33 27
51 34 19
51 35 15
51 36 23
51 37 22
51 38 1
51 39 28
51 40 1
51 41 50
51 42 1
51 43 21
51 44 18
51 45 48
51 46 5
51 47 28
51 48 40
51 49 35
51 50 15
52 0 24
52 1 16
52 2 10
52 3 22
52 4 32
52 5 21
52 6 29
52 7 1
52 8 21
52 9 34
52 10 31
52 11 13
52 12 16
52 13 38
52 14 19
52 15 24
52 16 21
52 17 31
52 18 17
52 19 12
52 20 18
52 21 38
52 22 23
52 23 48
52 24 11
52 25 48
52 26 23
52 27 29
52 28 49
52 29 1
52 30 23
52 31 49
52 32 42
52 33 7
52 34 39
52 35 48
52 36 44
52 37 1
52 38 24
52 39 40
52 40 27
52 41 7
52 42 50
52 43 9
52 44 29
52 45 17
52 46 49
52 47 29
52 48 12
52 49 41
52 50 6
52 51 31
53 0 25
53 1 28
53 2 22
53 3 43
53 4 45
53 5 2
53 6 35
53 7 10
53 8 26
53 9 19
53 10 30
53 11 35
53 12 28
53 13 8
53 14 49
53 15 24
53 16 1
53 17 8
53 18 17
53 19 9
53 20 26
53 21 20
53 22 2
53 23 3
53 24 30
53 25 34
53 26 23
53 27 27
53 28 40
53 29 34
53 30 38
53 31 3
53 32 13
53 33 26
53 34 41
53 35 25
53 36 45
53 37 3
53 38 40
53 39 7
53 40 7
53 41 24
53 42 20
53 43 27
53 44 1
53 45 43
53 46 24
53 47 18
53 48 45
53 49 39
53 50 45
53 51 8
53 52 15
54 0 20
54 1 28
54 2 34
54 3 24
54 4 6
54 5 7
54 6 3
54 7 34
54 8 10
54 9 49
54 10 16
54 11 29
54 12 29
54 13 48
54 14 25
54 15 37
54 16 3
54 17 25
54 18 38
54 19 30
54 20 25
54 21 50
54 22 16
54 23 7
54 24 25
54 25 16
54 26 29
54 27 8
54 28 3
54 29 48
54 30 19
54 31 3
54 32 47
54 33 24
54 34 43
54 35 7
54 36 44
54 37 36
54 38 26
54 39 15
54 40 25
54 41 21
54 42 26
54 43 17
54 44 15
54 45 46
54 46 48
54 47 14
54 48 18
54 49 11
54 50 13
54 51 28
54 52 42
54 53 26
55 0 16
55 1 36
55 2 36
55 3 49
55 4 18
55 5 21
55 6 2
55 7 31
55 8 41
55 9 15
55 10 26
55 11 48
55 12 4
55 13 27
55 14 33
55 15 23
55 16 24
55 17 44
55 18 25
55 19 36
55 20 43
55 21 21
55 22 21
55 23 30
55 24 9
55 25 37
55 26 10
55 27 9
55 28 14
55 29 37
55 30 37
55 31 6
55 32 41
55 33 28
55 34 16
55 35 32
55 36 41
55 37 19
55 38 15
55 39 17
55 40 24
55 41 4
55 42 39
55 43 31
55 44 5
55 45 37
55 46 22
55 47 16
55 48 19
55 49 36
55 50 22
55 51 40
55 52 13
55 53 46
55 54 26
56 0 41
56 1 10
56 2 50
56 3 19
56 4 32
56 5 32
56 6 7
56 7 2
56 8 15
56 9 44
56 10 25
56 11 37
56 12 10
56 13 30
56 14 2
56 15 31
56 16 8
56 17 46
56 18 3
56 19 17
56 20 33
56 21 36
56 22 7
56 23 1
56 24 4
56 25 15
56 26 18
56 27 35
56 28 47
56 29 4
56 30 13
56 31 36
56 32 32
56 33 30
56 34 30
56 35 46
56 36 2
56 37 49
56 38 6
56 39 33
56 40 49
56 41 46
56 42 37
56 43 43
56 44 30
56 45 30
56 46 42
56 47 32
56 48 43
56 49 4
56 50 40
56 51 15
56 52 1
56 53 14
56 54 32
56 55 36
57 0 28
57 1 22
57 2 34
57 3 16
57 4 47
57 5 33
57 6 21
57 7 17
57 8 17
57 9 1
57 10 4
57 11 37
57 12 6
57 13 16
57 14 30
57 15 24
57 16 33
57 17 20
57 18 45
57 19 31
57 20 40
57 21 29
57 22 39
57 23 25
57 24 4
57 25 40
57 26 38
57 27 1
57 28 27
57 29 24
57 30 36
57 31 1
57 32 38
57 33 45
57 34 2
57 35 39
57 36 14
57 37 2
57 38 50
57 39 24
57 40 34
57 41 47
57 42 48
57 43 14
57 44 4
57 45 45
57 46 9
57 47 38
57 48 29
57 49 24
57 50 9
57 51 32
57 52 4
57 53 41
57 54 31
57 55 23
57 56 24
58 0 28
58 1 31
58 2 37
58 3 4
58 4 45
58 5 32
58 6 11
58 7 48
58 8 17
58 9 28
58 10 26
58 11 14
58 12 34
58 13 21
58 14 39
58 15 2
58 16 12
58 17 50
58 18 9
58 19 38
58 20 31
58 21 17
58 22 50
58 23 44
58 24 34
58 25 29
58 26 46
58 27 6
58 28 38
58 29 1
58 30 32
58 31 46
58 32 3
58 33 14
58 34 10
58 35 37
58 36 39
58 37 31
58 38 6
58 39 47
58 40 26
58 41 5
58 42 35
58 43 14
58 44 49
58 45 5
58 46 50
58 47 29
58 48 45
58 49 19
58 50 49
58 51 41
58 52 44
58 53 29
58 54 24
58 55 39
58 56 24
58 57 47
59 0 22
59 1 9
59 2 37
59 3 33
59 4 32
59 5 31
59 6 48
59 7 7
59 8 15
59 9 49
59 10 27
59 11 49
59 12 33
59 13 5
59 14 4
59 15 28
59 16 43
59 17 38
59 18 1
59 19 29
59 20 35
59 21 17
59 22 32
59 23 36
59 24 33
59 25 40
59 26 6
59 27 27
59 28 47
59 29 34
59 30 4
59 31 11
59 32 44
59 33 13
59 34 27
59 35 24
59 36 8
59 37 15
59 38 24
59 39 8
59 40 40
59 41 40
59 42 29
59 43 14
59 44 27
59 45 34
59 46 9
59 47 50
59 48 25
59 49 25
59 50 12
59 51 35
59 52 45
59 53 23
59 54 30
59 55 19
59 56 20
59 57 19
59 58 28
60 0 12
60 1 11
60 2 18
60 3 48
60 4 29
60 5 13
60 6 11
60 7 5
60 8 37
60 9 35
60 10 16
60 11 5
60 12 6
60 13 49
60 14 41
60 15 40
60 16 23
60 17 48
60 18 40
60 19 3
60 20 37
60 21 38
60 22 38
60 23 1
60 24 36
60 25 38
60 26 18
60 27 49
60 28 27
60 29 9
60 30 26
60 31 38
60 32 6
60 33 50
60 34 6
60 35 30
60 36 29
60 37 28
60 38 49
60 39 9
60 40 13
60 41 11
60 42 42
60 43 7
60 44 33
60 45 10
60 46 28
60 47 19
60 48 2
60 49 8
60 50 36
60 51 42
60 52 29
60 53 7
60 54 22
60 55 20
60 56 27
60 57 8
60 58 38
60 59 35
61 0 19
61 1 25
61 2 27
61 3 18
61 4 16
61 5 17
61 6 49
61 7 5
61 8 14
61 9 20
61 10 35
61 11 49
61 12 27
61 13 36
61 14 2
61 15 26
61 16 27
61 17 36
61 18 25
61 19 18
61 20 15
61 21 11
61 22 49
61 23 1
61 24 46
61 25 5
61 26 8
61 27 34
61 28 38
61 29 23
61 30 2
61 31 2
61 32 13
61 33 47
61 34 16
61 35 35
61 36 37
61 37 21
61 38 37
61 39 42
61 40 24
61 41 37
61 42 42
61 43 44
61 44 45
61 45 1
61 46 10
61 47 15
61 48 35
61 49 8
61 50 12
61 51 13
61 52 16
61 53 30
61 54 24
61 55 13
61 56 47
61 57 34
61 58 27
61 59 8
61 60 48
62 0 2
62 1 9
62 2 15
62 3 40
62 4 46
62 5 28
62 6 25
62 7 13
62 8 6
62 9 11
62 10 9
62 11 39
62 12 22
62 13 19
62 14 49
62 15 31
62 16 16
62 17 44
62 18 23
62 19 26
62 20 17
62 21 37
62 22 44
62 23 14
62 24 40
62 25 36
62 26 50
62 27 37
62 28 13
62 29 14
62 30 35
62 31 37
62 32 5
62 33 4
62 34 26
62 35 6
62 36 13
62 37 36
62 38 23
62 39 41
62 40 41
62 41 21
62 42 1
62 43 40
62 44 50
62 45 50
62 46 41
62 47 10
62 48 44
62 49 4
62 50 24
62 51 44
62 52 40
62 53 18
62 54 39
62 55 24
62 56 6
62 57 47
62 58 5
62 59 25
62 60 7
62 61 14
63 0 22
63 1 48
63 2 9
63 3 33
63 4 1
63 5 47
63 6 46
63 7 18
63 8 49
63 9 35
63 10 42
63 11 30
63 12 29
63 13 17
63 14 9
63 15 11
63 16 1
63 17 20
63 18 36
63 19 19
63 20 48
63 21 20
63 22 27
63 23 7
63 24 6
63 25 32
63 26 9
63 27 14
63 28 24
63 29 32
63 30 10
63 31 46
63 32 21
63 33 42
63 34 43
63 35 50
63 36 7
63 37 38
63 38 30
63 39 12
63 40 40
63 41 26
63 42 16
63 43 25
63 44 47
63 45 24
63 46 33
63 47 23
63 48 50
63 49 21
63 50 10
63 51 8
63 52 20
63 53 25
63 54 32
63 55 41
63 56 5
63 57 46
63 58 36
63 59 42
63 60 42
63 61 49
63 62 28
64 0 2
64 1 13
64 2 7
64 3 24
64 4 24
64 5 45
64 6 1
64 7 21
64 8 23
64 9 31
64 10 27
64 11 34
64 12 24
64 13 39
64 14 40
64 15 35
64 16 18
64 17 25
64 18 7
64 19 37
64 20 33
64 21 36
64 22 34
64 23 46
64 24 6
64 25 43
64 26 8
64 27 5
64 28 2
64 29 12
64 30 45
64 31 15
64 32 15
64 33 42
64 34 17
64 35 35
64 36 1
64 37 31
64 38 13
64 39 28
64 40 30
64 41 41
64 42 37
64 43 23
64 44 34
64 45 1
64 46 25
64 47 41
64 48 42
64 49 20
64 50 9
64 51 22
64 52 10
64 53 2
64 54 28
64 55 30
64 56 42
64 57 45
64 58 50
64 59 5
64 60 26
64 61 42
64 62 22
64 63 1
65 0 9
65 1 44
65 2 37
65 3 11
65 4 8
65 5 27
65 6 12
65 7 47
65 8 46
65 9 1
65 10 49
65 11 40
65 12 8
65 13 20
65 14 29
65 15 19
65 16 12
65 17 11
65 18 3
65 19 37
65 20 17
65 21 11
65 22 4
65 23 48
65 24 49
65 25 47
65 26 3
65 27 24
65 28 27
65 29 23
65 30 29
65 31 27
65 32 10
65 33 33
65 34 33
65 35 21
65 36 11
65 37 30
65 38 8
65 39 42
65 40 26
65 41 44
65 42 7
65 43 13
65 44 4
65 45 14
65 46 47
65 47 16
65 48 26
65 49 46
65 50 21
65 51 5
65 52 49
65 53 31
65 54 34
65 55 49
65 56 48
65 57 21
65 58 4
65 59 34
65 60 49
65 61 15
65 62 11
65 63 29
65 64 2
66 0 34
66 1 29
66 2 49
66 3 26
66 4 48
66 5 37
66 6 32
66 7 22
66 8 29
66 9 19
66 10 15
66 11 41
66 12 7
66 13 30
66 14 39
66 15 21
66 16 20
66 17 7
66 18 33
66 19 30
66 20 32
66 21 23
66 22 1
66 23 39
66 24 11
66 25 5
66 26 22
66 27 26
66 28 31
66 29 28
66 30 19
66 31 39
66 32 13
66 33 16
66 34 31
66 35 21
66 36 38
66 37 21
66 38 18
66 39 43
66 40 32
66 41 7
66 42 7
66 43 11
66 44 18
66 45 44
66 46 38
66 47 30
66 48 17
66 49 25
66 50 42
66 51 15
66 52 27
66 53 13
66 54 23
66 55 6
66 56 19
66 57 28
66 58 26
66 59 42
66 60 15
66 61 50
66 62 17
66 63 46
66 64 11
66 65 8
67 0 33
67 1 31
67 2 35
67 3 26
67 4 18
67 5 14
67 6 23
67 7 21
67 8 12
67 9 30
67 10 40
67 11 22
67 12 40
67 13 38
67 14 34
67 15 16
67 16 1
67 17 4
67 18 46
67 19 44
67 20 17
67 21 25
67 22 32
67 23 27
67 24 14
67 25 39
67 26 30
67 27 27
67 28 37
67 29 35
67 30 31
67 31 50
67 32 38
67 33 10
67 34 37
67 35 21
67 36 4
67 37 29
67 38 4
67 39 43
67 40 1
67 41 1
67 42 24
67 43 26
67 44 27
67 45 43
67 46 20
67 47 7
67 48 15
67 49 48
67 50 25
67 51 14
67 52 5
67 53 26
67 54 8
67 55 40
67 56 21
67 57 23
67 58 38
67 59 37
67 60 19
67 61 4
67 62 13
67 63 28
67 64 26
67 65 42
67 66 37
68 0 31
68 1 28
68 2 15
68 3 34
68 4 48
68 5 29
68 6 22
68 7 14
68 8 6
68 9 28
68 10 13
68 11 6
68 12 18
68 13 47
68 14 3
68 15 35
68 16 31
68 17 5
68 18 46
68 19 8
68 20 4
68 21 27
68 22 19
68 23 32
68 24 50
68 25 7
68 26 3
68 27 23
68 28 24
68 29 6
68 30 48
68 31 7
68 32 50
68 33 9
68 34 35
68 35 21
68 36 10
68 37 13
68 38 41
68 39 26
68 40 4
68 41 40
68 42 42
68 43 37
68 44 21
68 45 12
68 46 42
68 47 19
68 48 25
68 49 19
68 50 39
68 51 29
68 52 8
68 53 45
68 54 38
68 55 22
68 56 35
68 57 41
68 58 37
68 59 34
68 60 25
68 61 4
68 62 42
68 63 29
68 64 46
68 65 15
68 66 48
68 67 49
69 0 9
69 1 16
69 2 15
69 3 32
69 4 16
69 5 23
69 6 9
69 7 9
69 8 47
69 9 4
69 10 11
69 11 19
69 12 5
69 13 15
69 14 34
69 15 38
69 16 50
69 17 47
69 18 23
69 19 15
69 20 14
69 21 29
69 22 24
69 23 8
69 24 31
69 25 39
69 26 42
69 27 29
69 28 20
69 29 46
69 30 17
69 31 13
69 32 41
69 33 33
69 34 17
69 35 45
69 36 44
69 37 22
69 38 38
69 39 46
69 40 42
69 41 27
69 42 40
69 43 15
69 44 16
69 45 8
69 46 41
69 47 2
69 48 49
69 49 6
69 50 18
69 51 49
69 52 25
69 53 39
69 54 6
69 55 28
69 56 15
69 57 12
69 58 26
69 59 10
69 60 14
69 61 16
69 62 15
69 63 48
69 64 24
69 65 18
69 66 47
69 67 50
69 68 10
70 0 8
70 1 1
70 2 38
70 3 28
70 4 33
70 5 44
70 6 4
70 7 47
70 8 44
70 9 12
70 10 25
70 11 50
70 12 20
70 13 17
70 14 26
70 15 24
70 16 27
70 17 1
70 18 36
70 19 25
70 20 34
70 21 39
70 22 33
70 23 18
70 24 37
70 25 36
70 26 20
70 27 5
70 28 22
70 29 36
70 30 35
70 31 12
70 32 5
70 33 29
70 34 21
70 35 9
70 36 3
70 37 38
70 38 32
70 39 40
70 40 33
70 41 45
70 42 26
70 43 32
70 44 1
70 45 27
70 46 44
70 47 50
70 48 20
70 49 17
70 50 7
70 51 47
70 52 12
70 53 4
70 54 1
70 55 26
70 56 49
70 57 48
70 58 49
70 59 23
70 60 26
70 61 6
70 62 28
70 63 28
70 64 29
70 65 21
70 66 10
70 67 31
70 68 27
70 69 41
71 0 31
71 1 46
71 2 31
71 3 46
71 4 24
71 5 17
71 6 2
71 7 24
71 8 30
71 9 27
71 10 2
71 11 8
71 12 42
71 13 11
71 14 28
71 15 25
71 16 45
71 17 48
71 18 9
71 19 6
71 20 49
71 21 9
71 22 17
71 23 25
71 24 28
71 25 29
71 26 12
71 27 49
71 28 32
71 29 35
71 30 40
71 31 34
71 32 49
71 33 36
71 34 25
71 35 32
71 36 23
71 37 25
71 38 7
71 39 11
71 40 24
71 41 23
71 42 42
71 43 28
71 44 42
71 45 50
71 46 28
71 47 50
71 48 50
71 49 16
71 50 15
71 51 7
71 52 8
71 53 1
71 54 31
71 55 21
71 56 36
71 57 34
71 58 45
71 59 15
71 60 10
71 61 20
71 62 5
71 63 19
71 64 32
71 65 4
71 66 11
71 67 43
71 68 42
71 69 36
71 70 9
72 0 25
72 1 9
72 2 9
72 3 31
72 4 45
72 5 46
72 6 4
72 7 50
72 8 25
72 9 44
72 10 40
72 11 48
72 12 48
72 13 22
72 14 47
72 15 25
72 16 31
72 17 39
72 18 19
72 19 2
72 20 15
72 21 45
72 22 47
72 23 42
72 24 26
72 25 7
72 26 27
72 27 35
72 28 49
72 29 47
72 30 45
72 31 42
72 32 48
72 33 49
72 34 18
72 35 12
72 36 44
72 37 11
72 38 33
72 39 6
72 40 3
72 41 27
72 42 19
72 43 46
72 44 34
72 45 25
72 46 15
72 47 20
72 48 18
72 49 44
72 50 23
72 51 29
72 52 39
72 53 47
72 54 1
72 55 16
72 56 21
72 57 20
72 58 27
72 59 14
72 60 4
72 61 38
72 62 19
72 63 16
72 64 10
72 65 14
72 66 48
72 67 15
72 68 35
72 69 48
72 70 22
72 71 19
73 0 2
73 1 6
73 2 44
73 3 44
73 4 36
73 5 25
73 6 1
73 7 26
73 8 22
73 9 10
73 10 8
73 11 22
73 12 34
73 13 21
73 14 44
73 15 15
73 16 13
73 17 10
73 18 21
73 19 32
73 20 10
73 21 27
73 22 9
73 23 3
73 24 50
73 25 22
73 26 27
73 27 40
73 28 16
73 29 2
73 30 39
73 31 3
73 32 13
73 33 26
73 34 13
73 35 5
73 36 48
73 37 36
73 38 34
73 39 30
73 40 19
73 41 31
73 42 16
73 43 15
73 44 10
73 45 49
73 46 25
73 47 37
73 48 15
73 49 48
73 50 35
73 51 13
73 52 19
73 53 23
73 54 3
73 55 11
73 56 24
73 57 13
73 58 12
73 59 34
73 60 24
73 61 36
73 62 42
73 63 47
73 64 8
73 65 6
73 66 31
73 67 48
73 68 48
73 69 10
73 70 39
73 71 23
73 72 33
74 0 17
74 1 26
74 2 9
74 3 46
74 4 19
74 5 41
74 6 19
74 7 47
74 8 20
74 9 8
74 10 8
74 11 46
74 12 17
74 13 36
74 14 26
74 15 10
74 16 39
74 17 6
74 18 34
74 19 47
74 20 11
74 21 39
74 22 45
74 23 47
74 24 17
74 25 25
74 26 38
74 27 1
74 28 19
74 29 40
74 30 41
74 31 40
74 32 29
74 33 14
74 34 4
74 35 4
74 36 15
74 37 37
74 38 24
74 39 48
74 40 6
74 41 3
74 42 26
74 43 23
74 44 11
74 45 48
74 46 39
74 47 21
74 48 42
74 49 10
74 50 40
74 51 31
74 52 26
74 53 45
74 54 35
74 55 35
74 56 19
74 57 45
74 58 13
74 59 19
74 60 41
74 61 18
74 62 41
74 63 24
74 64 13
74 65 6
74 66 36
74 67 28
74 68 43
74 69 23
74 70 20
74 71 30
74 72 15
74 73 14
